
%FILE DATA:	Soccer Computational Problem for MiniZinc Models	%
%AUTHOR:	Jack Wall	%
%CONTACT:  	116397063@umail.ucc.ie			%
%LAST UPDATE:	03/19/2020, 18:19:11						%
%DESCRIPTION: 	224 games played with 16 games left				%


n=16; %number of teams

%Games to play
games=[|2,8|8,10|15,13|12,15|8,3|2,10|1,12|1,13|13,15|5,7|8,12|5,8|15,4|16,6|14,9|10,7|];

%Initial points
iPoints=[33,32,46,32,39,33,35,31,36,30,43,39,38,46,33,47];

%POSITION CONSTRAINTS
% [|teamID, operator, position|...]
% operators index:
%  1 for =  operator
%  2 for >  operator
%  3 for >= operator
%  4 for <  operator
%  5 for <= operator
positionConstraints=[|16,1,1|3,5,2|14,2,2|];